solution status: time limit reached
objective value:                                  344
$_316_y                                            17 	(obj:0)
$_316_z                                            15 	(obj:0)
$_176_y                                            19 	(obj:0)
$_176_z                                            17 	(obj:0)
$_125_y                                            21 	(obj:0)
$_125_z                                            20 	(obj:0)
$_69_y                                             17 	(obj:0)
$_69_z                                             13 	(obj:0)
$_289_y                                            16 	(obj:0)
$_289_z                                            16 	(obj:0)
$_126_y                                            19 	(obj:0)
$_126_z                                            14 	(obj:0)
$_305_y                                            19 	(obj:0)
$_305_z                                            16 	(obj:0)
$_47_y                                             18 	(obj:0)
$_47_z                                             17 	(obj:0)
$_104_y                                            18 	(obj:0)
$_104_z                                            18 	(obj:0)
$_19_y                                             21 	(obj:0)
$_19_z                                             19 	(obj:0)
$_23_y                                             19 	(obj:0)
$_23_z                                             15 	(obj:0)
$_46_y                                             13 	(obj:0)
$_46_z                                             19 	(obj:0)
$_312_y                                            21 	(obj:0)
$_312_z                                            21 	(obj:0)
$_202_y                                            20 	(obj:0)
$_202_z                                            19 	(obj:0)
$_193_y                                            20 	(obj:0)
$_193_z                                            17 	(obj:0)
$_180_y                                            18 	(obj:0)
$_180_z                                            19 	(obj:0)
$_169_y                                            18 	(obj:0)
$_169_z                                            20 	(obj:0)
$_218_y                                            18 	(obj:0)
$_218_z                                            21 	(obj:0)
$_225_y                                            20 	(obj:0)
$_225_z                                            20 	(obj:0)
$_140_y                                            13 	(obj:0)
$_140_z                                            13 	(obj:0)
$_83_y                                             19 	(obj:0)
$_83_z                                             18 	(obj:0)
$_27_y                                             12 	(obj:0)
$_27_z                                             17 	(obj:0)
$_76_y                                             16 	(obj:0)
$_76_z                                             14 	(obj:0)
$_209_y                                            20 	(obj:0)
$_209_z                                            21 	(obj:0)
$_79_y                                             17 	(obj:0)
$_79_z                                             19 	(obj:0)
$_20_y                                             12 	(obj:0)
$_20_z                                             21 	(obj:0)
$_266_y                                            17 	(obj:0)
$_266_z                                            18 	(obj:0)
$_24_y                                             20 	(obj:0)
$_24_z                                             11 	(obj:0)
$_186_y                                            16 	(obj:0)
$_186_z                                            18 	(obj:0)
$_54_y                                             19 	(obj:0)
$_54_z                                             20 	(obj:0)
$_308_y                                            21 	(obj:0)
$_308_z                                            22 	(obj:0)
$_130_y                                            17 	(obj:0)
$_130_z                                            16 	(obj:0)
$_260_y                                            21 	(obj:0)
$_260_z                                            16 	(obj:0)
$_22_y                                             18 	(obj:0)
$_22_z                                             13 	(obj:0)
$_196_y                                            20 	(obj:0)
$_196_z                                            22 	(obj:0)
$_257_y                                            24 	(obj:0)
$_257_z                                            17 	(obj:0)
$_121_y                                            13 	(obj:0)
$_121_z                                            15 	(obj:0)
$_273_y                                            20 	(obj:0)
$_273_z                                            16 	(obj:0)
$_17_y                                             16 	(obj:0)
$_17_z                                             13 	(obj:0)
$_21_y                                             19 	(obj:0)
$_21_z                                             19 	(obj:0)
$_57_y                                             19 	(obj:0)
$_57_z                                             13 	(obj:0)
$_103_y                                            13 	(obj:0)
$_103_z                                            16 	(obj:0)
$_50_y                                             14 	(obj:0)
$_50_z                                             21 	(obj:0)
$_61_y                                             15 	(obj:0)
$_61_z                                             13 	(obj:0)
$_28_y                                             13 	(obj:0)
$_28_z                                             17 	(obj:0)
$_68_y                                             15 	(obj:0)
$_68_z                                             15 	(obj:0)
$_276_y                                            17 	(obj:0)
$_276_z                                            20 	(obj:0)
$_105_y                                            21 	(obj:0)
$_105_z                                            17 	(obj:0)
$_25_y                                             21 	(obj:0)
$_25_z                                             10 	(obj:0)
$_228_y                                            21 	(obj:0)
$_228_z                                            23 	(obj:0)
$_250_y                                            21 	(obj:0)
$_250_z                                            15 	(obj:0)
$_292_y                                            17 	(obj:0)
$_292_z                                            21 	(obj:0)
$_26_y                                             23 	(obj:0)
$_26_z                                             23 	(obj:0)
$_177_y                                            20 	(obj:0)
$_177_z                                            18 	(obj:0)
$_212_y                                            22 	(obj:0)
$_212_z                                            22 	(obj:0)
$_282_y                                            13 	(obj:0)
$_282_z                                            20 	(obj:0)
$_298_y                                            17 	(obj:0)
$_298_z                                            22 	(obj:0)
$_72_y                                             22 	(obj:0)
$_72_z                                             21 	(obj:0)
$_109_y                                            17 	(obj:0)
$_109_z                                            17 	(obj:0)
$_244_y                                            25 	(obj:0)
$_244_z                                            19 	(obj:0)
$_241_y                                            21 	(obj:0)
$_241_z                                            18 	(obj:0)
$_234_y                                            22 	(obj:0)
$_234_z                                            19 	(obj:0)
x125                                                2 	(obj:1)
x126                                                3 	(obj:1)
x127                                                3 	(obj:1)
x128                                                3 	(obj:1)
x129                                                3 	(obj:1)
x130                                                3 	(obj:1)
x132                                                3 	(obj:1)
x133                                                3 	(obj:1)
x134                                                3 	(obj:1)
x135                                                3 	(obj:1)
x136                                                3 	(obj:1)
x137                                                3 	(obj:1)
x138                                                1 	(obj:1)
x139                                                3 	(obj:1)
x140                                                3 	(obj:1)
x141                                                3 	(obj:1)
x142                                                3 	(obj:1)
x144                                                3 	(obj:1)
x145                                                3 	(obj:1)
x146                                                1 	(obj:1)
x148                                                3 	(obj:1)
x149                                                3 	(obj:1)
x150                                                3 	(obj:1)
x151                                                3 	(obj:1)
x152                                                3 	(obj:1)
x153                                                3 	(obj:1)
x155                                                3 	(obj:1)
x156                                                3 	(obj:1)
x157                                                3 	(obj:1)
x158                                                2 	(obj:1)
x159                                                3 	(obj:1)
x160                                                3 	(obj:1)
x161                                                1 	(obj:1)
x162                                                3 	(obj:1)
x163                                                1 	(obj:1)
x164                                                3 	(obj:1)
x165                                                3 	(obj:1)
x166                                                2 	(obj:1)
x168                                                2 	(obj:1)
x169                                                3 	(obj:1)
x170                                                1 	(obj:1)
x171                                                3 	(obj:1)
x172                                                1 	(obj:1)
x173                                                3 	(obj:1)
x174                                                1 	(obj:1)
x176                                                1 	(obj:1)
x177                                                3 	(obj:1)
x178                                                3 	(obj:1)
x179                                                3 	(obj:1)
x180                                                3 	(obj:1)
x181                                                1 	(obj:1)
x182                                                3 	(obj:1)
x184                                                3 	(obj:1)
x185                                                1 	(obj:1)
x187                                                3 	(obj:1)
x189                                                3 	(obj:1)
x190                                                1 	(obj:1)
x191                                                1 	(obj:1)
x192                                                3 	(obj:1)
x193                                                1 	(obj:1)
x195                                                3 	(obj:1)
x196                                                3 	(obj:1)
x197                                                1 	(obj:1)
x198                                                3 	(obj:1)
x199                                                3 	(obj:1)
x202                                                3 	(obj:1)
x203                                                3 	(obj:1)
x204                                                1 	(obj:1)
x205                                                3 	(obj:1)
x206                                                2 	(obj:1)
x207                                                3 	(obj:1)
x209                                                1 	(obj:1)
x210                                                1 	(obj:1)
x212                                                3 	(obj:1)
x213                                                1 	(obj:1)
x215                                                3 	(obj:1)
x217                                                3 	(obj:1)
x218                                                3 	(obj:1)
x220                                                2 	(obj:1)
x221                                                3 	(obj:1)
x222                                                1 	(obj:1)
x223                                                3 	(obj:1)
x224                                                3 	(obj:1)
x226                                                1 	(obj:1)
x227                                                3 	(obj:1)
x228                                                3 	(obj:1)
x229                                                3 	(obj:1)
x230                                                3 	(obj:1)
x231                                                3 	(obj:1)
x232                                                3 	(obj:1)
x233                                                3 	(obj:1)
x235                                                3 	(obj:1)
x236                                                3 	(obj:1)
x237                                                3 	(obj:1)
x238                                                3 	(obj:1)
x239                                                3 	(obj:1)
x240                                                3 	(obj:1)
x241                                                3 	(obj:1)
x242                                                3 	(obj:1)
x243                                                1 	(obj:1)
x244                                                1 	(obj:1)
x245                                                1 	(obj:1)
x246                                                3 	(obj:1)
x247                                                1 	(obj:1)
x248                                                3 	(obj:1)
x249                                                3 	(obj:1)
x250                                                3 	(obj:1)
x253                                                3 	(obj:1)
x255                                                3 	(obj:1)
x257                                                1 	(obj:1)
x258                                                2 	(obj:1)
x259                                                3 	(obj:1)
x260                                                2 	(obj:1)
x263                                                2 	(obj:1)
x264                                                2 	(obj:1)
x266                                                2 	(obj:1)
x267                                                1 	(obj:1)
x268                                                2 	(obj:1)
x269                                                3 	(obj:1)
x270                                                3 	(obj:1)
x272                                                3 	(obj:1)
x273                                                3 	(obj:1)
x274                                                2 	(obj:1)
x275                                                3 	(obj:1)
x276                                                1 	(obj:1)
x280                                                1 	(obj:1)
x281                                                2 	(obj:1)
x283                                                1 	(obj:1)
x287                                                1 	(obj:1)
x288                                                3 	(obj:1)
x289                                                3 	(obj:1)
x290                                                3 	(obj:1)
x292                                                2 	(obj:1)
x293                                                3 	(obj:1)
x294                                                1 	(obj:1)
x295                                                1 	(obj:1)
x296                                                2 	(obj:1)
x298                                                2 	(obj:1)
x300                                                3 	(obj:1)
x301                                                2 	(obj:1)
x302                                                2 	(obj:1)
x303                                                2 	(obj:1)
x304                                                2 	(obj:1)
